qbf_easy_train/easy_1905_SAT.qdimacs
p cnf 20 44
a 2 6 0
e 1 3 4 5 7 8 9 10 11 12 13 14 15 16 17 18 19 20 0
-1 2 -3 0
1 -2 -3 0
-1 -2 3 0
1 2 3 0
6 4 0
6 -5 0
-4 5 -6 0
7 -8 -9 0
-7 8 -9 0
7 8 9 0
-7 -8 9 0
10 6 0
10 9 0
-6 -9 -10 0
-12 -11 0
-12 2 0
11 -2 12 0
14 1 0
14 13 0
-1 -13 -14 0
-15 -1 0
-15 -14 0
1 14 15 0
-16 12 0
-16 -15 0
-12 15 16 0
17 13 0
17 5 0
-13 -5 -17 0
-18 -16 0
-18 -17 0
16 17 18 0
-19 -10 0
-19 -18 0
10 18 19 0
-3 -19 -20 0
3 19 -20 0
-3 19 20 0
3 -19 20 0
-8 -4 14 0
14 8 10 2 13 -12 7 0
-19 9 -5 -15 -10 0
-14 10 6 -18 1 0
20 0
