sat_easy_train/easy_1905_SAT.dimacs
p cnf 70 208
5 3 0
5 4 0
-3 -4 -5 0
5 6 -7 0
-5 -6 -7 0
5 -6 7 0
-5 6 7 0
8 2 0
8 -7 0
-2 7 -8 0
-8 4 -9 0
8 -4 -9 0
-8 -4 9 0
8 4 9 0
-12 -10 0
-12 11 0
10 -11 12 0
9 12 -13 0
-9 -12 -13 0
9 -12 13 0
-9 12 13 0
1 13 -14 0
-1 -13 -14 0
1 -13 14 0
-1 13 14 0
15 14 0
15 14 0
-14 -15 0
-17 -6 0
-17 -13 0
6 13 17 0
16 -17 -18 0
-16 17 -18 0
16 17 18 0
-16 -17 18 0
-19 13 0
-19 5 0
-13 -5 19 0
20 -19 0
20 13 0
19 -13 -20 0
-21 18 0
-21 20 0
-18 -20 21 0
-16 3 -23 0
16 -3 -23 0
-16 -3 23 0
16 3 23 0
-22 23 -24 0
22 -23 -24 0
-22 -23 24 0
22 23 24 0
25 21 0
25 -24 0
-21 24 -25 0
-26 15 0
-26 25 0
-15 -25 26 0
17 -8 -27 0
-17 8 -27 0
17 8 27 0
-17 -8 27 0
28 -29 0
-28 -29 0
31 29 0
31 -30 0
-29 30 -31 0
-32 -31 0
-32 2 0
31 -2 32 0
1 -6 -33 0
-1 6 -33 0
1 6 33 0
-1 -6 33 0
34 3 0
34 33 0
-3 -33 -34 0
16 -34 -35 0
-16 34 -35 0
16 34 35 0
-16 -34 35 0
-36 -35 0
-36 -31 0
35 31 36 0
-37 -32 0
-37 -36 0
32 36 37 0
39 -5 0
39 38 0
5 -38 -39 0
37 39 -40 0
-37 -39 -40 0
37 -39 40 0
-37 39 40 0
27 -40 -41 0
-27 40 -41 0
27 40 41 0
-27 -40 41 0
-28 -38 -42 0
28 38 -42 0
-28 38 42 0
28 -38 42 0
-44 42 0
-44 43 0
-42 -43 44 0
-45 -41 0
-45 44 0
41 -44 45 0
47 -46 0
47 -4 0
46 4 -47 0
48 -31 0
48 47 0
31 -47 -48 0
45 -48 -49 0
-45 48 -49 0
45 48 49 0
-45 -48 49 0
-12 22 -50 0
12 -22 -50 0
-12 -22 50 0
12 22 50 0
-52 50 0
-52 -51 0
-50 51 52 0
-54 53 0
-54 -53 0
55 52 0
55 -54 0
-52 54 -55 0
56 -4 0
56 6 0
4 -6 -56 0
-57 -55 0
-57 -56 0
55 56 57 0
-58 5 0
-58 -23 0
-5 23 58 0
9 58 -59 0
-9 -58 -59 0
9 -58 59 0
-9 58 59 0
-43 59 -60 0
43 -59 -60 0
-43 -59 60 0
43 59 60 0
-61 -30 0
-61 -2 0
30 2 61 0
62 53 0
62 -42 0
-53 42 -62 0
-63 -61 0
-63 62 0
61 -62 63 0
-60 63 -64 0
60 -63 -64 0
-60 -63 64 0
60 63 64 0
65 -57 0
65 64 0
57 -64 -65 0
66 34 0
66 12 0
-34 -12 -66 0
-67 -22 0
-67 66 0
22 -66 67 0
65 67 -68 0
-65 -67 -68 0
65 -67 68 0
-65 67 68 0
-69 49 0
-69 -68 0
-49 68 69 0
-26 -69 -70 0
26 69 -70 0
-26 69 70 0
26 -69 70 0
66 13 -42 0
-48 -10 46 -12 0
-21 -58 -9 -23 -11 13 0
45 -8 64 0
-25 -63 -11 19 -1 0
-66 -59 0
-68 11 56 -24 63 0
-47 -68 -60 23 63 36 0
45 -12 -54 0
49 -67 54 -27 -34 10 0
43 38 0
-28 61 23 2 -35 0
63 -41 -8 31 67 0
-50 42 70 69 0
-53 -25 -52 0
8 -70 69 33 30 -22 0
-18 46 -65 -58 0
45 -56 0
-40 41 -52 21 0
-51 39 4 0
24 10 0
-31 18 0
64 21 0
-60 -1 -32 50 -70 69 0
27 62 45 0
33 -40 20 0
40 -43 36 -53 -33 -51 0
70 0
